# Solution for model micodag
# Objective value = 2.0303778748687414e+01
s_0_1 0
s_1_0 0
s_0_2 0
s_2_0 2.7049828333214077e-01
s_1_2 0
s_2_1 2.1503284511112675e-01
s_1_3 0
s_3_1 1.9850171667647043e-01
s_1_9 0
s_9_1 0
s_1_12 0
s_12_1 6.7750469370382183e-01
s_1_13 0
s_13_1 2.5519120279984975e-01
s_2_3 0
s_3_2 2.7519848565669847e-01
s_2_4 0
s_4_2 3.5431592165436276e-01
s_2_6 0
s_6_2 0
s_2_8 0
s_8_2 2.7054439535883645e-01
s_3_4 0
s_4_3 5.9320449662062158e-01
s_3_6 0
s_6_3 0
s_3_7 0
s_7_3 0
s_3_8 0
s_8_3 4.4638997512229306e-01
s_3_9 0
s_9_3 3.6542112009995531e-01
s_3_12 0
s_12_3 0
s_3_13 0
s_13_3 5.5386762001099132e-01
s_4_5 0
s_5_4 0
s_4_6 0
s_6_4 3.7666650213184871e-01
s_4_7 0
s_7_4 0
s_4_8 0
s_8_4 0
s_4_11 0
s_11_4 3.6068011841668390e-01
s_5_6 0
s_6_5 7.3109950999955808e-01
s_5_7 0
s_7_5 6.0240927137848255e-01
s_5_14 0
s_14_5 3.7955452780170829e-01
s_6_8 0
s_8_6 3.3736175430952242e-01
s_7_8 0
s_8_7 0
s_7_9 0
s_9_7 3.4057582802970563e+00
s_7_10 0
s_10_7 3.4057582802970563e+00
s_7_11 0
s_11_7 3.4057582802970563e+00
s_8_11 0
s_11_8 2.0600323455166336e-01
s_9_12 0
s_12_9 3.0057031740543705e-01
s_12_13 0
s_13_12 0.338574296955795
s_0_0 1.0856060763194626e+00
s_1_1 5.9381127186299176e-01
s_2_2 0.650320160644577
s_3_3 6.8863900264819966e-01
s_4_4 9.2431166806492948e-01
s_5_5 0.621392581099319
s_6_6 9.9857964902885232e-01
s_7_7 3.4057582802970563e+00
s_8_8 6.4253420054186572e-01
s_9_9 9.3919508150736331e-01
s_10_10 6.0375529310945764e-01
s_11_11 5.8111764903533514e-01
s_12_12 0.943833437587636
s_13_13 7.4492586848120590e-01
s_14_14 1.0790881781605570e+00
Gamma_0_0 1.0419242181269535e+00
Gamma_0_1 0
Gamma_0_2 0
Gamma_0_3 0
Gamma_0_4 0
Gamma_0_5 0
Gamma_0_6 0
Gamma_0_7 0
Gamma_0_8 0
Gamma_0_9 0
Gamma_0_10 0
Gamma_0_11 0
Gamma_0_12 0
Gamma_0_13 0
Gamma_0_14 0
Gamma_1_0 0
Gamma_1_1 7.7059150778021968e-01
Gamma_1_2 0
Gamma_1_3 0
Gamma_1_4 0
Gamma_1_5 0
Gamma_1_6 0
Gamma_1_7 0
Gamma_1_8 0
Gamma_1_9 0
Gamma_1_10 0
Gamma_1_11 0
Gamma_1_12 0
Gamma_1_13 0
Gamma_1_14 0
Gamma_2_0 -5.2009449461818069e-01
Gamma_2_1 -4.6371634121640332e-01
Gamma_2_2 8.0642430558892364e-01
Gamma_2_3 0
Gamma_2_4 0
Gamma_2_5 0
Gamma_2_6 0
Gamma_2_7 0
Gamma_2_8 0
Gamma_2_9 0
Gamma_2_10 0
Gamma_2_11 0
Gamma_2_12 0
Gamma_2_13 0
Gamma_2_14 0
Gamma_3_0 0
Gamma_3_1 4.4553531473551161e-01
Gamma_3_2 5.2459363859724717e-01
Gamma_3_3 8.2984275778499139e-01
Gamma_3_4 0
Gamma_3_5 0
Gamma_3_6 0
Gamma_3_7 0
Gamma_3_8 0
Gamma_3_9 0
Gamma_3_10 0
Gamma_3_11 0
Gamma_3_12 0
Gamma_3_13 0
Gamma_3_14 0
Gamma_4_0 0
Gamma_4_1 0
Gamma_4_2 0.595244421775092
Gamma_4_3 7.7019769969834506e-01
Gamma_4_4 9.6141128975320966e-01
Gamma_4_5 0
Gamma_4_6 0
Gamma_4_7 0
Gamma_4_8 0
Gamma_4_9 0
Gamma_4_10 0
Gamma_4_11 0
Gamma_4_12 0
Gamma_4_13 0
Gamma_4_14 0
Gamma_5_0 0
Gamma_5_1 0
Gamma_5_2 0
Gamma_5_3 0
Gamma_5_4 0
Gamma_5_5 7.8828458128985346e-01
Gamma_5_6 0
Gamma_5_7 0
Gamma_5_8 0
Gamma_5_9 0
Gamma_5_10 0
Gamma_5_11 0
Gamma_5_12 0
Gamma_5_13 0
Gamma_5_14 0
Gamma_6_0 0
Gamma_6_1 0
Gamma_6_2 0
Gamma_6_3 0
Gamma_6_4 -6.1373162060614861e-01
Gamma_6_5 8.5504357198891223e-01
Gamma_6_6 9.9928957216056891e-01
Gamma_6_7 0
Gamma_6_8 0
Gamma_6_9 0
Gamma_6_10 0
Gamma_6_11 0
Gamma_6_12 0
Gamma_6_13 0
Gamma_6_14 0
Gamma_7_0 0
Gamma_7_1 0
Gamma_7_2 0
Gamma_7_3 0
Gamma_7_4 0
Gamma_7_5 -7.7615028916987649e-01
Gamma_7_6 0
Gamma_7_7 9.3695518327229343e-01
Gamma_7_8 0
Gamma_7_9 0
Gamma_7_10 0
Gamma_7_11 0
Gamma_7_12 0
Gamma_7_13 0
Gamma_7_14 0
Gamma_8_0 0
Gamma_8_1 0
Gamma_8_2 5.2013882316054572e-01
Gamma_8_3 6.6812422132586491e-01
Gamma_8_4 0
Gamma_8_5 0
Gamma_8_6 -5.8082850679828313e-01
Gamma_8_7 0
Gamma_8_8 8.0158231052204842e-01
Gamma_8_9 0
Gamma_8_10 0
Gamma_8_11 0
Gamma_8_12 0
Gamma_8_13 0
Gamma_8_14 0
Gamma_9_0 0
Gamma_9_1 0
Gamma_9_2 0
Gamma_9_3 6.0450071968522590e-01
Gamma_9_4 0
Gamma_9_5 0
Gamma_9_6 0
Gamma_9_7 -6.2554333359290970e-01
Gamma_9_8 0
Gamma_9_9 9.6912077756457338e-01
Gamma_9_10 0
Gamma_9_11 0
Gamma_9_12 0
Gamma_9_13 0
Gamma_9_14 0
Gamma_10_0 0
Gamma_10_1 0
Gamma_10_2 0
Gamma_10_3 0
Gamma_10_4 0
Gamma_10_5 0
Gamma_10_6 0
Gamma_10_7 4.8683879164679522e-01
Gamma_10_8 0
Gamma_10_9 0
Gamma_10_10 7.7701691944864248e-01
Gamma_10_11 0
Gamma_10_12 0
Gamma_10_13 0
Gamma_10_14 0
Gamma_11_0 0
Gamma_11_1 0
Gamma_11_2 0
Gamma_11_3 0
Gamma_11_4 -6.0056649791399841e-01
Gamma_11_5 0
Gamma_11_6 0
Gamma_11_7 6.1008952278577311e-01
Gamma_11_8 4.5387579198682149e-01
Gamma_11_9 0
Gamma_11_10 0
Gamma_11_11 7.6231072997520888e-01
Gamma_11_12 0
Gamma_11_13 0
Gamma_11_14 0
Gamma_12_0 0
Gamma_12_1 -8.2310673287479663e-01
Gamma_12_2 0
Gamma_12_3 0
Gamma_12_4 0
Gamma_12_5 0
Gamma_12_6 0
Gamma_12_7 0
Gamma_12_8 0
Gamma_12_9 -0.548242936484765
Gamma_12_10 0
Gamma_12_11 0
Gamma_12_12 0.971510904512984
Gamma_12_13 0
Gamma_12_14 0
Gamma_13_0 0
Gamma_13_1 5.0516453042533638e-01
Gamma_13_2 0
Gamma_13_3 7.4422282954165775e-01
Gamma_13_4 0
Gamma_13_5 0
Gamma_13_6 0
Gamma_13_7 0
Gamma_13_8 0
Gamma_13_9 0
Gamma_13_10 0
Gamma_13_11 0
Gamma_13_12 0.581871374923871
Gamma_13_13 8.6309088077745666e-01
Gamma_13_14 0
Gamma_14_0 0
Gamma_14_1 0
Gamma_14_2 0
Gamma_14_3 0
Gamma_14_4 0
Gamma_14_5 0.616079968674286
Gamma_14_6 0
Gamma_14_7 0
Gamma_14_8 0
Gamma_14_9 0
Gamma_14_10 0
Gamma_14_11 0
Gamma_14_12 0
Gamma_14_13 0
Gamma_14_14 1.0387916914187161e+00
psi_0 6
psi_1 6
psi_2 5
psi_3 4
psi_4 3
psi_5 4
psi_6 2
psi_7 3
psi_8 1
psi_9 2
psi_10 0
psi_11 0
psi_12 1
psi_13 0
psi_14 0
g_0_0 0
g_0_1 0
g_0_2 0
g_0_3 0
g_0_4 0
g_0_5 0
g_0_6 0
g_0_7 0
g_0_8 0
g_0_9 0
g_0_10 0
g_0_11 0
g_0_12 0
g_0_13 0
g_0_14 0
g_1_0 0
g_1_1 0
g_1_2 0
g_1_3 0
g_1_4 0
g_1_5 0
g_1_6 0
g_1_7 0
g_1_8 0
g_1_9 0
g_1_10 0
g_1_11 0
g_1_12 0
g_1_13 0
g_1_14 0
g_2_0 1
g_2_1 1
g_2_2 0
g_2_3 0
g_2_4 0
g_2_5 0
g_2_6 0
g_2_7 0
g_2_8 0
g_2_9 0
g_2_10 0
g_2_11 0
g_2_12 0
g_2_13 0
g_2_14 0
g_3_0 0
g_3_1 1
g_3_2 1
g_3_3 0
g_3_4 0
g_3_5 0
g_3_6 0
g_3_7 0
g_3_8 0
g_3_9 0
g_3_10 0
g_3_11 0
g_3_12 0
g_3_13 0
g_3_14 0
g_4_0 0
g_4_1 0
g_4_2 1
g_4_3 1
g_4_4 0
g_4_5 0
g_4_6 0
g_4_7 0
g_4_8 0
g_4_9 0
g_4_10 0
g_4_11 0
g_4_12 0
g_4_13 0
g_4_14 0
g_5_0 0
g_5_1 0
g_5_2 0
g_5_3 0
g_5_4 0
g_5_5 0
g_5_6 0
g_5_7 0
g_5_8 0
g_5_9 0
g_5_10 0
g_5_11 0
g_5_12 0
g_5_13 0
g_5_14 0
g_6_0 0
g_6_1 0
g_6_2 0
g_6_3 0
g_6_4 1
g_6_5 1
g_6_6 0
g_6_7 0
g_6_8 0
g_6_9 0
g_6_10 0
g_6_11 0
g_6_12 0
g_6_13 0
g_6_14 0
g_7_0 0
g_7_1 0
g_7_2 0
g_7_3 0
g_7_4 0
g_7_5 1
g_7_6 0
g_7_7 0
g_7_8 0
g_7_9 0
g_7_10 0
g_7_11 0
g_7_12 0
g_7_13 0
g_7_14 0
g_8_0 0
g_8_1 0
g_8_2 1
g_8_3 1
g_8_4 0
g_8_5 0
g_8_6 1
g_8_7 0
g_8_8 0
g_8_9 0
g_8_10 0
g_8_11 0
g_8_12 0
g_8_13 0
g_8_14 0
g_9_0 0
g_9_1 0
g_9_2 0
g_9_3 1
g_9_4 0
g_9_5 0
g_9_6 0
g_9_7 1
g_9_8 0
g_9_9 0
g_9_10 0
g_9_11 0
g_9_12 0
g_9_13 0
g_9_14 0
g_10_0 0
g_10_1 0
g_10_2 0
g_10_3 0
g_10_4 0
g_10_5 0
g_10_6 0
g_10_7 1
g_10_8 0
g_10_9 0
g_10_10 0
g_10_11 0
g_10_12 0
g_10_13 0
g_10_14 0
g_11_0 0
g_11_1 0
g_11_2 0
g_11_3 0
g_11_4 1
g_11_5 0
g_11_6 0
g_11_7 1
g_11_8 1
g_11_9 0
g_11_10 0
g_11_11 0
g_11_12 0
g_11_13 0
g_11_14 0
g_12_0 0
g_12_1 1
g_12_2 0
g_12_3 0
g_12_4 0
g_12_5 0
g_12_6 0
g_12_7 0
g_12_8 0
g_12_9 1
g_12_10 0
g_12_11 0
g_12_12 0
g_12_13 0
g_12_14 0
g_13_0 0
g_13_1 1
g_13_2 0
g_13_3 1
g_13_4 0
g_13_5 0
g_13_6 0
g_13_7 0
g_13_8 0
g_13_9 0
g_13_10 0
g_13_11 0
g_13_12 1
g_13_13 0
g_13_14 0
g_14_0 0
g_14_1 0
g_14_2 0
g_14_3 0
g_14_4 0
g_14_5 1
g_14_6 0
g_14_7 0
g_14_8 0
g_14_9 0
g_14_10 0
g_14_11 0
g_14_12 0
g_14_13 0
g_14_14 0
T_0 -8.2138426722067948e-02
T_1 5.2119373424088167e-01
T_2 4.3029048251996471e-01
T_3 3.7303808918187542e-01
T_4 7.8705961113783474e-02
T_5 4.7579222110424269e-01
T_6 1.4213606257413858e-03
T_7 1.3023965581301411e-01
T_8 4.4233523321409507e-01
T_9 6.2732066817929422e-02
T_10 5.0458630699878881e-01
T_11 5.4280204859264813e-01
T_12 5.7805571638013475e-02
T_13 2.9447057094792228e-01
T_14 -7.6116405050512981e-02
